17	4	3
24	17	19	22	36	34	1	
0	0	0	0	0	9	5	10	5	9	6	3	2	3	4
2	3	4	7	1	8	2	5	1	1	3	1	11
8	0	0	0	3	1	3	4	8	1	10	2	6	8
8	7	8	0	3	10	1	6	8	3	4	2	5	7
10	6	1	7	0	6	5	10	6	1	4	1	17
200	4	7	4	0	7	10	9	7	4	7	3	13	14	16
175	9	1	4	4	2	2	9	7	3	9	1	8
175	4	0	7	4	9	3	1	3	1	2	3	9	14	16
25	2	9	5	2	2	10	2	7	7	5	2	10	12
225	3	0	6	0	10	2	9	10	8	10	2	15	17
175	7	7	4	7	4	5	9	2	1	3	1	17
175	7	8	0	5	9	3	5	7	10	7	1	17
9	0	1	1	0	5	9	10	6	1	10	2	17	17
5	2	4	0	8	7	2	9	9	9	5	1	17
5	2	0	7	5	3	9	7	2	8	5	1	17
1	9	6	0	0	2	2	9	10	3	10	1	17
0	0	0	0	0	3	2	2	7	9	2	0
